33D32945 STP File, STP Format Version 1.0

SECTION Comment
Name    "i080-041"
Creator "Cees Duin"
Remark  "Incidence graph"
END

SECTION Graph
Nodes 80
Edges 632
E 1 4 304
E 1 9 204
E 1 10 192
E 1 12 200
E 1 13 201
E 1 14 205
E 1 20 200
E 1 23 197
E 1 25 195
E 1 35 202
E 1 42 212
E 1 44 194
E 1 45 191
E 1 46 198
E 1 47 209
E 1 48 204
E 1 63 206
E 1 66 203
E 1 67 196
E 1 69 199
E 1 73 193
E 2 4 295
E 2 5 306
E 2 7 205
E 2 10 200
E 2 30 198
E 2 39 202
E 2 40 201
E 2 50 202
E 2 51 197
E 2 55 198
E 2 58 203
E 2 66 199
E 2 67 205
E 2 69 200
E 2 70 203
E 2 71 191
E 2 73 197
E 2 79 197
E 3 4 304
E 3 7 208
E 3 15 199
E 3 20 199
E 3 23 204
E 3 24 195
E 3 28 205
E 3 32 201
E 3 33 203
E 3 36 192
E 3 37 202
E 3 47 201
E 3 54 203
E 3 66 201
E 3 68 204
E 3 72 208
E 3 73 196
E 3 77 200
E 4 7 198
E 4 10 201
E 4 13 199
E 4 15 196
E 4 19 196
E 4 23 200
E 4 24 191
E 4 25 203
E 4 33 192
E 4 34 211
E 4 38 194
E 4 61 199
E 4 65 197
E 4 66 196
E 4 70 198
E 5 10 198
E 5 21 209
E 5 22 194
E 5 25 192
E 5 29 210
E 5 31 196
E 5 47 198
E 5 52 207
E 5 60 197
E 5 67 195
E 5 71 193
E 5 73 195
E 5 75 202
E 5 76 205
E 6 10 201
E 6 15 197
E 6 22 199
E 6 28 202
E 6 33 200
E 6 39 197
E 6 40 191
E 6 41 196
E 6 55 204
E 6 59 205
E 6 60 198
E 6 66 196
E 6 69 192
E 6 72 194
E 6 78 197
E 6 80 199
E 7 16 99
E 7 18 94
E 7 27 99
E 7 28 99
E 7 37 107
E 7 42 100
E 7 50 102
E 7 54 104
E 7 55 95
E 7 62 102
E 7 74 94
E 7 76 104
E 8 9 101
E 8 13 101
E 8 16 104
E 8 18 106
E 8 24 97
E 8 26 101
E 8 29 106
E 8 37 99
E 8 38 102
E 8 43 106
E 8 48 103
E 8 60 102
E 8 67 97
E 8 70 103
E 8 73 105
E 8 74 99
E 8 75 100
E 8 77 97
E 9 16 101
E 9 17 92
E 9 21 107
E 9 39 89
E 9 40 93
E 9 42 98
E 9 45 95
E 9 54 104
E 9 62 103
E 9 74 101
E 9 75 106
E 9 76 98
E 9 77 102
E 9 78 107
E 9 80 96
E 10 15 97
E 10 17 106
E 10 22 85
E 10 23 98
E 10 33 98
E 10 36 95
E 10 47 103
E 10 48 101
E 10 50 101
E 10 51 99
E 10 53 97
E 10 67 95
E 10 71 102
E 10 74 105
E 11 13 102
E 11 17 99
E 11 20 99
E 11 21 96
E 11 32 100
E 11 33 96
E 11 35 99
E 11 38 109
E 11 45 98
E 11 48 97
E 11 80 97
E 12 17 96
E 12 22 104
E 12 23 108
E 12 26 106
E 12 29 88
E 12 30 96
E 12 31 97
E 12 34 101
E 12 48 103
E 12 54 100
E 12 59 103
E 12 65 112
E 12 67 96
E 12 68 95
E 12 78 105
E 13 19 104
E 13 20 99
E 13 21 94
E 13 25 101
E 13 28 95
E 13 33 102
E 13 37 93
E 13 38 102
E 13 39 99
E 13 40 98
E 13 43 96
E 13 44 101
E 13 54 102
E 13 55 99
E 13 62 98
E 13 63 100
E 13 70 107
E 13 79 94
E 14 24 97
E 14 30 97
E 14 32 105
E 14 34 98
E 14 37 89
E 14 38 100
E 14 47 102
E 14 49 95
E 14 50 99
E 14 59 97
E 14 63 104
E 14 69 112
E 15 29 100
E 15 30 108
E 15 41 100
E 15 46 95
E 15 50 92
E 15 53 101
E 15 57 92
E 15 60 87
E 15 69 98
E 15 73 102
E 15 75 100
E 15 80 94
E 16 18 95
E 16 36 97
E 16 41 108
E 16 42 103
E 16 52 96
E 16 53 102
E 16 62 89
E 16 75 106
E 17 29 95
E 17 30 104
E 17 31 97
E 17 32 105
E 17 35 101
E 17 48 98
E 17 51 107
E 17 75 103
E 17 76 97
E 17 77 95
E 17 78 97
E 17 79 110
E 17 80 94
E 18 26 108
E 18 31 105
E 18 32 102
E 18 37 101
E 18 46 102
E 18 53 101
E 18 70 99
E 19 27 95
E 19 35 98
E 19 41 100
E 19 42 111
E 19 51 98
E 19 53 104
E 19 62 102
E 19 64 98
E 19 65 96
E 20 25 96
E 20 26 102
E 20 27 100
E 20 29 105
E 20 32 94
E 20 37 99
E 20 38 106
E 20 45 103
E 20 49 102
E 20 63 103
E 20 64 104
E 20 67 105
E 20 68 96
E 20 71 98
E 20 72 96
E 20 80 95
E 21 24 101
E 21 27 90
E 21 29 88
E 21 39 100
E 21 41 100
E 21 43 100
E 21 50 108
E 21 58 100
E 21 67 95
E 21 75 104
E 21 80 109
E 22 26 100
E 22 28 105
E 22 33 100
E 22 34 107
E 22 37 106
E 22 38 96
E 22 41 96
E 22 43 102
E 22 49 98
E 22 50 100
E 22 56 104
E 22 59 92
E 22 62 106
E 22 67 101
E 22 76 111
E 22 78 106
E 23 28 100
E 23 41 101
E 23 43 101
E 23 45 99
E 23 49 94
E 23 54 102
E 23 57 107
E 23 63 102
E 23 65 106
E 23 66 104
E 23 68 100
E 23 71 102
E 23 73 95
E 23 80 109
E 24 26 96
E 24 30 87
E 24 34 102
E 24 42 99
E 24 45 94
E 24 47 98
E 24 53 96
E 24 55 97
E 24 59 107
E 24 63 105
E 24 64 98
E 24 68 102
E 24 69 97
E 24 74 97
E 25 43 100
E 25 44 100
E 25 67 102
E 25 68 100
E 25 73 101
E 25 74 96
E 25 78 96
E 25 79 102
E 26 36 104
E 26 37 88
E 26 39 93
E 26 41 94
E 26 43 98
E 26 45 97
E 26 47 94
E 26 51 98
E 26 52 99
E 26 72 99
E 26 73 103
E 26 76 101
E 27 28 98
E 27 29 104
E 27 46 112
E 27 48 115
E 27 55 106
E 27 58 92
E 27 59 102
E 27 61 101
E 27 62 105
E 27 65 98
E 27 74 105
E 27 77 98
E 27 78 102
E 28 29 97
E 28 39 99
E 28 43 105
E 28 47 111
E 28 50 100
E 28 52 100
E 28 54 100
E 28 57 93
E 28 68 95
E 29 32 90
E 29 34 102
E 29 37 98
E 29 45 93
E 29 50 93
E 29 51 99
E 29 58 96
E 29 62 108
E 29 64 95
E 29 74 104
E 29 75 100
E 30 32 92
E 30 33 101
E 30 40 103
E 30 51 95
E 30 54 109
E 30 61 107
E 30 69 104
E 30 71 94
E 30 73 109
E 30 79 95
E 31 44 103
E 31 52 107
E 31 54 100
E 31 65 104
E 31 67 95
E 31 68 101
E 31 70 94
E 32 36 109
E 32 51 100
E 32 71 97
E 32 77 86
E 33 35 102
E 33 37 95
E 33 38 101
E 33 47 99
E 33 48 99
E 33 70 97
E 33 72 102
E 33 75 102
E 33 80 103
E 34 38 93
E 34 41 95
E 34 48 104
E 34 70 99
E 34 71 95
E 35 42 110
E 35 48 95
E 35 51 103
E 35 52 98
E 35 62 100
E 35 63 98
E 35 74 105
E 35 76 107
E 35 77 106
E 36 43 100
E 36 50 105
E 36 51 100
E 36 56 102
E 36 63 93
E 36 65 100
E 36 67 94
E 36 70 101
E 36 72 94
E 37 45 100
E 37 47 104
E 37 53 106
E 37 58 105
E 37 60 99
E 37 66 91
E 37 73 94
E 37 76 106
E 37 79 93
E 38 45 97
E 38 48 99
E 38 54 99
E 38 63 96
E 38 64 104
E 38 74 95
E 38 75 101
E 39 47 96
E 39 58 99
E 39 61 94
E 39 65 107
E 39 68 94
E 40 41 100
E 40 42 109
E 40 51 93
E 40 58 102
E 40 61 95
E 40 63 108
E 40 66 95
E 40 75 96
E 40 76 102
E 40 79 101
E 41 49 92
E 41 52 110
E 41 54 92
E 41 58 92
E 41 59 108
E 41 62 91
E 41 73 99
E 41 77 98
E 41 78 95
E 42 45 103
E 42 51 95
E 42 52 102
E 42 58 98
E 42 64 94
E 42 67 104
E 42 68 95
E 42 71 101
E 42 72 100
E 43 45 94
E 43 48 98
E 43 49 99
E 43 50 97
E 43 54 106
E 43 63 99
E 43 65 99
E 43 67 98
E 43 75 97
E 44 48 105
E 44 51 97
E 44 54 93
E 44 55 91
E 44 56 95
E 44 61 100
E 44 65 95
E 44 72 94
E 44 75 96
E 44 77 106
E 45 47 100
E 45 48 100
E 45 53 104
E 45 56 104
E 45 73 113
E 45 78 102
E 46 49 93
E 46 51 99
E 46 57 97
E 46 61 97
E 46 66 109
E 46 68 99
E 46 70 111
E 46 71 90
E 46 73 108
E 46 76 103
E 46 79 96
E 47 53 98
E 47 80 102
E 48 50 101
E 48 51 100
E 48 63 95
E 48 65 95
E 48 76 101
E 48 77 104
E 48 78 95
E 48 79 99
E 49 55 103
E 49 56 97
E 49 58 96
E 49 65 96
E 49 66 104
E 49 67 102
E 49 71 94
E 49 72 103
E 49 76 108
E 50 51 99
E 50 52 95
E 50 53 102
E 50 68 95
E 50 74 102
E 51 55 99
E 51 57 100
E 52 54 103
E 52 58 92
E 52 60 100
E 52 74 98
E 52 75 100
E 52 77 94
E 53 54 104
E 53 65 103
E 53 67 96
E 53 68 110
E 53 71 103
E 53 73 110
E 54 55 106
E 54 56 103
E 54 62 105
E 54 64 97
E 54 71 104
E 54 75 87
E 55 57 93
E 55 58 103
E 55 59 102
E 55 61 106
E 55 62 102
E 55 65 93
E 55 66 99
E 55 69 98
E 56 57 100
E 56 68 103
E 56 71 97
E 56 78 88
E 57 65 107
E 57 70 94
E 57 73 106
E 57 76 106
E 58 63 100
E 58 69 93
E 58 77 100
E 59 67 100
E 59 69 99
E 59 73 98
E 59 74 102
E 60 63 97
E 60 75 100
E 60 78 102
E 61 75 105
E 61 79 100
E 62 65 89
E 62 78 104
E 63 71 102
E 63 73 99
E 63 76 94
E 64 66 93
E 64 70 100
E 64 74 92
E 65 76 95
E 65 78 99
E 66 72 101
E 66 75 99
E 66 79 107
E 67 70 108
E 67 71 93
E 67 77 100
E 67 78 102
E 68 75 110
E 69 70 91
E 69 71 107
E 69 74 103
E 69 77 118
E 70 73 103
E 70 76 93
E 71 80 93
E 72 78 102
E 72 79 93
E 74 78 102
E 74 79 104
E 74 80 99
E 76 79 97
E 77 78 98
END

SECTION Terminals
Terminals 6
T 1
T 2
T 3
T 4
T 5
T 6
END

EOF
